c User generated cnf file
p cnf 12 63
-5 3 4 0 
6 -10 4 0 
-8 9 4 0 
5 -8 10 0 
6 -3 2 0 
-5 5 10 0 
7 -2 10 0 
10 9 -9 0 
-12 10 3 0 
5 9 -4 0 
12 6 -11 0 
2 -7 12 0 
-8 4 7 0 
-4 6 10 0 
10 5 -6 0 
4 10 -12 0 
6 11 -10 0 
1 -7 7 0 
10 2 -4 0 
-6 8 2 0 
-3 3 4 0 
12 10 -8 0 
-9 7 9 0 
-6 7 11 0 
11 -5 6 0 
1 -11 12 0 
10 -1 5 0 
10 3 -1 0 
12 -5 4 0 
5 9 -7 0 
12 5 -6 0 
4 -4 2 0 
-3 3 6 0 
-4 7 4 0 
6 -6 7 0 
8 8 -8 0 
5 1 -9 0 
8 -3 7 0 
7 -5 9 0 
1 9 -10 0 
4 -8 2 0 
-9 1 12 0 
1 5 -3 0 
-5 12 11 0 
11 4 -6 0 
6 -11 9 0 
6 -11 8 0 
-7 8 12 0 
1 -4 5 0 
12 9 -3 0 
5 -9 9 0 
9 11 -7 0 
12 4 -4 0 
9 -12 6 0 
7 -6 5 0 
8 6 -1 0 
-8 10 10 0 
4 -1 10 0 
-4 7 5 0 
-1 11 10 0 
1 11 -7 0 
3 9 -1 0 
12 -12 10 0 
